p cnf 191 487
a 2 4 10 12 60 67 28 30 37 103 115 128 142 151 162 180 1 9 17 21 27 36 43 0
d 55 1 9 0
d 77 60 67 0
d 69 17 21 0
d 138 142 43 0
d 95 27 36 0
d 166 142 151 0
d 3 2 0
d 5 4 0
d 6 2 4 0
d 7 1 2 4 0
d 8 1 2 4 0
d 11 10 0
d 13 10 12 0
d 14 9 10 12 0
d 15 9 10 12 0
d 16 1 2 4 9 10 12 0
d 18 17 2 4 0
d 19 17 2 4 0
d 20 1 2 4 9 10 12 17 0
d 22 12 0
d 23 10 12 0
d 24 21 10 12 0
d 25 21 10 12 0
d 26 1 2 4 9 10 12 17 21 0
d 29 28 0
d 31 30 0
d 32 28 30 0
d 33 27 28 30 0
d 34 27 28 30 0
d 35 1 2 4 9 10 12 17 21 27 28 30 0
d 38 37 2 0
d 39 37 2 4 0
d 40 36 37 2 4 0
d 41 36 37 2 4 0
d 42 1 2 4 9 10 12 17 21 27 28 30 36 37 0
d 44 43 2 4 0
d 45 43 2 4 0
d 46 1 2 4 9 10 12 17 21 27 28 30 36 37 43 0
d 47 2 0
d 48 2 4 0
d 49 2 4 0
d 50 2 4 0
d 51 10 2 0
d 52 10 2 4 0
d 53 10 2 4 0
d 54 2 4 10 0
d 56 2 4 10 0
d 57 2 4 10 12 0
d 58 1 9 2 4 10 12 0
d 59 2 4 10 1 9 12 0
d 61 60 2 0
d 62 60 2 4 0
d 63 10 12 60 2 4 0
d 64 10 12 60 2 4 0
d 65 2 4 10 1 9 12 60 0
d 66 60 0
d 68 60 67 0
d 70 60 67 17 21 0
d 71 2 4 10 12 0
d 72 60 67 2 4 10 12 0
d 73 60 67 17 21 2 4 10 12 0
d 74 2 4 10 1 9 12 60 67 17 21 0
d 75 28 2 0
d 76 28 2 4 0
d 78 10 12 60 67 0
d 79 28 2 4 10 12 60 67 0
d 80 10 12 60 0
d 81 67 0
d 82 10 12 60 67 0
d 83 28 2 4 10 12 60 67 0
d 84 28 2 4 10 12 60 67 0
d 85 2 4 10 1 9 12 60 67 17 21 28 0
d 86 60 67 28 0
d 87 60 67 28 30 0
d 88 17 21 60 67 28 30 0
d 89 60 67 0
d 90 60 67 28 0
d 91 60 67 28 30 0
d 92 2 4 10 12 60 67 28 30 0
d 93 17 21 60 67 28 30 2 4 10 12 0
d 94 2 4 10 1 9 12 60 67 17 21 28 30 0
d 96 10 12 60 67 27 36 0
d 97 28 30 37 2 4 0
d 98 10 12 60 67 28 30 37 2 4 0
d 99 10 12 60 67 27 36 28 30 37 2 4 0
d 100 2 4 10 1 9 12 60 67 17 21 28 30 27 36 37 0
d 101 60 67 28 30 0
d 102 37 0
d 104 37 103 0
d 105 37 103 17 21 0
d 106 60 67 28 30 37 103 17 21 0
d 107 60 67 28 30 0
d 108 37 103 2 4 10 12 0
d 109 60 67 28 30 37 103 2 4 10 12 0
d 110 60 67 28 30 37 103 17 21 2 4 10 12 0
d 111 2 4 10 1 9 12 60 67 17 21 28 30 27 36 37 103 0
d 112 28 30 37 0
d 113 103 0
d 114 28 30 37 103 0
d 116 115 2 0
d 117 115 2 4 0
d 118 115 2 4 0
d 119 115 2 4 10 12 60 67 0
d 120 28 30 37 103 115 2 4 10 12 60 67 0
d 121 115 2 4 10 12 60 67 0
d 122 28 30 37 103 115 2 4 10 12 60 67 0
d 123 28 30 37 103 115 2 4 10 12 60 67 0
d 124 2 4 10 1 9 12 60 67 17 21 28 30 27 36 37 103 115 0
d 125 37 103 0
d 126 115 0
d 127 37 103 115 0
d 129 37 103 115 128 0
d 130 17 21 60 67 28 30 0
d 131 37 103 115 128 17 21 60 67 28 30 0
d 132 2 4 10 12 60 67 28 30 0
d 133 37 103 115 128 2 4 10 12 60 67 28 30 0
d 134 37 103 115 128 17 21 60 67 28 30 2 4 10 12 0
d 135 2 4 10 1 9 12 60 67 17 21 28 30 27 36 37 103 115 128 0
d 136 128 0
d 137 115 128 0
d 139 115 128 142 43 0
d 140 10 12 60 67 28 30 37 103 0
d 141 115 128 142 43 10 12 60 67 28 30 37 103 0
d 143 142 2 0
d 144 142 2 4 0
d 145 115 128 142 2 4 0
d 146 10 12 60 67 28 30 37 103 0
d 147 115 128 142 2 4 10 12 60 67 28 30 37 103 0
d 148 115 128 142 43 10 12 60 67 28 30 37 103 2 4 0
d 149 2 4 10 1 9 12 60 67 17 21 28 30 27 36 37 103 115 128 142 43 0
d 150 142 0
d 152 142 151 0
d 153 142 151 17 21 0
d 154 37 103 115 128 0
d 155 60 67 28 30 37 103 115 128 0
d 156 142 151 17 21 60 67 28 30 37 103 115 128 0
d 157 142 151 2 4 10 12 0
d 158 60 67 28 30 37 103 115 128 0
d 159 142 151 2 4 10 12 60 67 28 30 37 103 115 128 0
d 160 142 151 17 21 60 67 28 30 37 103 115 128 2 4 10 12 0
d 161 2 4 10 1 9 12 60 67 17 21 28 30 27 36 37 103 115 128 142 43 151 0
d 163 162 2 0
d 164 162 2 4 0
d 165 162 2 4 10 12 60 67 0
d 167 115 128 142 151 0
d 168 28 30 37 103 115 128 142 151 0
d 169 162 2 4 10 12 60 67 28 30 37 103 115 128 142 151 0
d 170 162 2 4 10 12 60 67 0
d 171 115 128 142 0
d 172 151 0
d 173 115 128 142 151 0
d 174 28 30 37 103 115 128 142 151 0
d 175 162 2 4 10 12 60 67 28 30 37 103 115 128 142 151 0
d 176 162 2 4 10 12 60 67 28 30 37 103 115 128 142 151 0
d 177 2 4 10 1 9 12 60 67 17 21 28 30 27 36 37 103 115 128 142 43 151 162 0
d 178 162 0
d 179 142 151 162 0
d 181 142 151 162 180 0
d 182 37 103 115 128 142 151 162 180 0
d 183 17 21 60 67 28 30 37 103 115 128 142 151 162 180 0
d 184 142 151 0
d 185 142 151 162 0
d 186 142 151 162 180 0
d 187 37 103 115 128 142 151 162 180 0
d 188 2 4 10 12 60 67 28 30 37 103 115 128 142 151 162 180 0
d 189 17 21 60 67 28 30 37 103 115 128 142 151 162 180 2 4 10 12 0
d 190 2 4 10 1 9 12 60 67 17 21 28 30 27 36 37 103 115 128 142 43 151 162 180 0
d 191 1 2 4 9 10 12 17 21 27 28 30 36 37 43 60 67 103 115 128 142 151 162 180 0
3 2 0
-3 -2 0
5 4 0
-5 -4 0
-6 3 0
-6 5 0
6 -3 -5 0
7 -1 -6 0
7 1 6 0
-7 -1 6 0
-7 1 -6 0
8 7 0
-8 -7 0
11 10 0
-11 -10 0
-13 11 0
-13 12 0
13 -11 -12 0
14 -9 -13 0
14 9 13 0
-14 -9 13 0
-14 9 -13 0
15 14 0
-15 -14 0
16 -8 0
16 -15 0
-16 8 15 0
18 -17 -6 0
18 17 6 0
-18 -17 6 0
-18 17 -6 0
19 18 0
-19 -18 0
20 -16 0
20 -19 0
-20 16 19 0
22 12 0
-22 -12 0
-23 11 0
-23 22 0
23 -11 -22 0
24 -21 -23 0
24 21 23 0
-24 -21 23 0
-24 21 -23 0
25 24 0
-25 -24 0
26 -20 0
26 -25 0
-26 20 25 0
29 28 0
-29 -28 0
31 30 0
-31 -30 0
-32 29 0
-32 31 0
32 -29 -31 0
33 -27 -32 0
33 27 32 0
-33 -27 32 0
-33 27 -32 0
34 33 0
-34 -33 0
35 -26 0
35 -34 0
-35 26 34 0
-38 37 0
-38 3 0
38 -37 -3 0
-39 38 0
-39 5 0
39 -38 -5 0
40 -36 -39 0
40 36 39 0
-40 -36 39 0
-40 36 -39 0
41 40 0
-41 -40 0
42 -35 0
42 -41 0
-42 35 41 0
44 -43 -6 0
44 43 6 0
-44 -43 6 0
-44 43 -6 0
45 44 0
-45 -44 0
46 -42 0
46 -45 0
-46 42 45 0
47 -2 -2 0
47 2 2 0
-47 -2 2 0
-47 2 -2 0
-48 3 0
-48 4 0
48 -3 -4 0
49 -48 -48 0
49 48 48 0
-49 -48 48 0
-49 48 -48 0
-50 47 0
-50 49 0
50 -47 -49 0
-51 10 0
-51 3 0
51 -10 -3 0
-52 51 0
-52 5 0
52 -51 -5 0
53 -52 -52 0
53 52 52 0
-53 -52 52 0
-53 52 -52 0
-54 50 0
-54 53 0
54 -50 -53 0
-56 6 0
-56 11 0
56 -6 -11 0
-57 56 0
-57 12 0
57 -56 -12 0
58 -55 -57 0
58 55 57 0
-58 -55 57 0
-58 55 -57 0
-59 54 0
-59 58 0
59 -54 -58 0
-61 60 0
-61 3 0
61 -60 -3 0
-62 61 0
-62 5 0
62 -61 -5 0
-63 23 0
-63 62 0
63 -23 -62 0
64 -63 -63 0
64 63 63 0
-64 -63 63 0
-64 63 -63 0
-65 59 0
-65 64 0
65 -59 -64 0
66 60 0
-66 -60 0
-68 66 0
-68 67 0
68 -66 -67 0
-70 68 0
-70 69 0
70 -68 -69 0
-71 56 0
-71 22 0
71 -56 -22 0
-72 68 0
-72 71 0
72 -68 -71 0
73 -70 -72 0
73 70 72 0
-73 -70 72 0
-73 70 -72 0
-74 65 0
-74 73 0
74 -65 -73 0
-75 28 0
-75 3 0
75 -28 -3 0
-76 75 0
-76 5 0
76 -75 -5 0
-78 23 0
-78 77 0
78 -23 -77 0
-79 76 0
-79 78 0
79 -76 -78 0
-80 23 0
-80 66 0
80 -23 -66 0
81 67 0
-81 -67 0
-82 80 0
-82 81 0
82 -80 -81 0
-83 76 0
-83 82 0
83 -76 -82 0
84 -79 -83 0
84 79 83 0
-84 -79 83 0
-84 79 -83 0
-85 74 0
-85 84 0
85 -74 -84 0
-86 77 0
-86 29 0
86 -77 -29 0
-87 86 0
-87 30 0
87 -86 -30 0
-88 69 0
-88 87 0
88 -69 -87 0
-89 66 0
-89 81 0
89 -66 -81 0
-90 89 0
-90 29 0
90 -89 -29 0
-91 90 0
-91 30 0
91 -90 -30 0
-92 71 0
-92 91 0
92 -71 -91 0
93 -88 -92 0
93 88 92 0
-93 -88 92 0
-93 88 -92 0
-94 85 0
-94 93 0
94 -85 -93 0
-96 78 0
-96 95 0
96 -78 -95 0
-97 32 0
-97 39 0
97 -32 -39 0
-98 82 0
-98 97 0
98 -82 -97 0
99 -96 -98 0
99 96 98 0
-99 -96 98 0
-99 96 -98 0
-100 94 0
-100 99 0
100 -94 -99 0
-101 86 0
-101 31 0
101 -86 -31 0
102 37 0
-102 -37 0
-104 102 0
-104 103 0
104 -102 -103 0
-105 104 0
-105 69 0
105 -104 -69 0
-106 101 0
-106 105 0
106 -101 -105 0
-107 90 0
-107 31 0
107 -90 -31 0
-108 104 0
-108 71 0
108 -104 -71 0
-109 107 0
-109 108 0
109 -107 -108 0
110 -106 -109 0
110 106 109 0
-110 -106 109 0
-110 106 -109 0
-111 100 0
-111 110 0
111 -100 -110 0
-112 32 0
-112 102 0
112 -32 -102 0
113 103 0
-113 -103 0
-114 112 0
-114 113 0
114 -112 -113 0
-116 115 0
-116 3 0
116 -115 -3 0
-117 116 0
-117 5 0
117 -116 -5 0
118 117 0
-118 -117 0
-119 118 0
-119 78 0
119 -118 -78 0
-120 114 0
-120 119 0
120 -114 -119 0
-121 117 0
-121 82 0
121 -117 -82 0
-122 114 0
-122 121 0
122 -114 -121 0
123 -120 -122 0
123 120 122 0
-123 -120 122 0
-123 120 -122 0
-124 111 0
-124 123 0
124 -111 -123 0
-125 102 0
-125 113 0
125 -102 -113 0
126 115 0
-126 -115 0
-127 125 0
-127 126 0
127 -125 -126 0
-129 127 0
-129 128 0
129 -127 -128 0
-130 69 0
-130 101 0
130 -69 -101 0
-131 129 0
-131 130 0
131 -129 -130 0
-132 71 0
-132 107 0
132 -71 -107 0
-133 129 0
-133 132 0
133 -129 -132 0
134 -131 -133 0
134 131 133 0
-134 -131 133 0
-134 131 -133 0
-135 124 0
-135 134 0
135 -124 -134 0
136 128 0
-136 -128 0
-137 126 0
-137 136 0
137 -126 -136 0
-139 137 0
-139 138 0
139 -137 -138 0
-140 78 0
-140 114 0
140 -78 -114 0
-141 139 0
-141 140 0
141 -139 -140 0
-143 142 0
-143 3 0
143 -142 -3 0
-144 143 0
-144 5 0
144 -143 -5 0
-145 137 0
-145 144 0
145 -137 -144 0
-146 82 0
-146 114 0
146 -82 -114 0
-147 145 0
-147 146 0
147 -145 -146 0
148 -141 -147 0
148 141 147 0
-148 -141 147 0
-148 141 -147 0
-149 135 0
-149 148 0
149 -135 -148 0
150 142 0
-150 -142 0
-152 150 0
-152 151 0
152 -150 -151 0
-153 152 0
-153 69 0
153 -152 -69 0
-154 127 0
-154 136 0
154 -127 -136 0
-155 101 0
-155 154 0
155 -101 -154 0
-156 153 0
-156 155 0
156 -153 -155 0
-157 152 0
-157 71 0
157 -152 -71 0
-158 107 0
-158 154 0
158 -107 -154 0
-159 157 0
-159 158 0
159 -157 -158 0
160 -156 -159 0
160 156 159 0
-160 -156 159 0
-160 156 -159 0
-161 149 0
-161 160 0
161 -149 -160 0
-163 162 0
-163 3 0
163 -162 -3 0
-164 163 0
-164 5 0
164 -163 -5 0
-165 164 0
-165 78 0
165 -164 -78 0
-167 137 0
-167 166 0
167 -137 -166 0
-168 114 0
-168 167 0
168 -114 -167 0
-169 165 0
-169 168 0
169 -165 -168 0
-170 164 0
-170 82 0
170 -164 -82 0
-171 137 0
-171 150 0
171 -137 -150 0
172 151 0
-172 -151 0
-173 171 0
-173 172 0
173 -171 -172 0
-174 114 0
-174 173 0
174 -114 -173 0
-175 170 0
-175 174 0
175 -170 -174 0
176 -169 -175 0
176 169 175 0
-176 -169 175 0
-176 169 -175 0
-177 161 0
-177 176 0
177 -161 -176 0
178 162 0
-178 -162 0
-179 166 0
-179 178 0
179 -166 -178 0
-181 179 0
-181 180 0
181 -179 -180 0
-182 154 0
-182 181 0
182 -154 -181 0
-183 130 0
-183 182 0
183 -130 -182 0
-184 150 0
-184 172 0
184 -150 -172 0
-185 184 0
-185 178 0
185 -184 -178 0
-186 185 0
-186 180 0
186 -185 -180 0
-187 154 0
-187 186 0
187 -154 -186 0
-188 132 0
-188 187 0
188 -132 -187 0
189 -183 -188 0
189 183 188 0
-189 -183 188 0
-189 183 -188 0
-190 177 0
-190 189 0
190 -177 -189 0
191 -46 0
191 -190 0
-191 46 190 0
191 0
